#######################################
### Exact MIP solver for the HHCRSP ###
#######################################
-- Instance file: new-instances/HHCRSP_50_10_1_1.2_C_RC.txt
-- Max threads: 4
-- Time limit: 999999 seconds
-- Use initial solution: No
Trivial flow violations prevented generating 6587 variables.
Model exported.
Version identifier: 20.1.0.0 | 2020-11-10 | 9bedb6d68
CPXPARAM_Threads                                 4
CPXPARAM_TimeLimit                               999999
Parallel mode: deterministic, using up to 4 threads for concurrent optimization:
 * Starting dual Simplex on 1 thread...
 * Starting Barrier on 3 threads...
Tried aggregator 1 time.
LP Presolve eliminated 1338 rows and 318 columns.
Reduced LP has 6056 rows, 5838 columns, and 50081 nonzeros.
Presolve time = 0.03 sec. (14.66 ticks)
Symmetry aggregator did 2426 additional substitutions.

Iteration log . . .
Iteration:     1   Dual objective     =             0.000000
Iteration:   232   Dual objective     =           120.333333

Dual crossover.
  Dual:  Fixing 88 variables.
       87 DMoves:  Infeasibility  5.01115753e-14  Objective  1.20347540e+02
        0 DMoves:  Infeasibility  1.23639653e-14  Objective  1.20347540e+02
  Dual:  Pushed 6, exchanged 82.
  Primal:  Fixing 19 variables.
       18 PMoves:  Infeasibility  5.55111512e-17  Objective  1.20347540e+02
        0 PMoves:  Infeasibility  5.55111512e-17  Objective  1.20347540e+02
  Primal:  Pushed 8, exchanged 11.

Dual simplex solved model.


Solution status from MIP model:
-- Processing time: 0.065 sec.
-- Memory used: 72.9902 MB
-- Best bound: inf
-- Obj value: 120.348
-- Gap: inf%
-- Total distance: 361.043
-- Total tardiness: 0
-- Largest tardiness: 0
